Automatic mesh
 0
Gamma
 7 7 5
 0. 0. 0.