Mn1 H2 O2
1.0
1.685051 -2.918593 0.000000
1.685051 2.918593 0.000000
0.000000 0.000000 4.820679
Mn H O
1 2 2
direct
0.000000 0.000000 0.000000 Mn
0.333333 0.666667 0.573216 H
0.666667 0.333333 0.426784 H
0.333333 0.666667 0.775277 O
0.666667 0.333333 0.224723 O
