k-points
 0
Monkhorst Pack
 1 2 1
 0 0 0
