full
   1.00000000000000
    26.3008273790543008    0.0000000190304559   15.1315845492859999
     0.0000000088939522   11.4747445654485993   -0.0000000011214926
    -0.0665330451630148   -0.0000000029715954   30.3784068341676985
   C    H    N    O    S 
   144   100    16    24     4
Selective dynamics
Direct
   0.3310894582529760   0.0000000039278913   0.6004599914728241 T T T #  0
   0.2613914545988630   0.0000000016513429   0.5791888392109160 T T T #  0
   0.1702389743987040   0.0000000055306150   0.6486888088043230 T T T #  0
   0.1455924957540310   0.0000000033207831   0.6202593807075700 T T T #  0
   0.0919003409338233  -0.0000000023157511   0.6423396820840231 T T T #  0
   0.0621119434437637   0.0000000025347382   0.6960973060234851 T T T #  0
   0.0879716783104089   0.0000000028478071   0.7240171631711741 T T T #  0
   0.1400802269198820   0.0000000037431679   0.7019102634587399 T T T #  0
   0.3128345114379450   0.0000000046178911   0.5640512168520551 T T T #  0
   0.3485746718231920   0.0000000096978968   0.5085230119376331 T T T #  0
   0.4381517467386180   0.0000000062131671   0.4377010988209731 T T T #  0
   0.4573412203683481  -0.0000000009805033   0.3484181724398020 T T T #  0
   0.5101613251429580  -0.0000000004422163   0.3238861823027451 T T T #  0
   0.5376706395079470  -0.0000000022958589   0.2713992540989961 T T T #  0
   0.5174983241753270  -0.0000000010964922   0.2380384836499340 T T T #  0
   0.4625481569358470  -0.0000000022653199   0.2648407815760100 T T T #  0
   0.4347914730611840  -0.0000000040697959   0.3177788106047851 T T T #  0
   0.4028667477778780   0.0000000124221046   0.4901908727788590 T T T #  0
   0.4227447423752401   0.0000000063580438   0.5253215654353680 T T T #  0
   0.4033246330891620   0.0000000047332911   0.6155663193486501 T T T #  0
   0.4743682254406810   0.0000000012094614   0.6351184553156330 T T T #  0
   0.4462716759895390  -0.0000000022785584   0.6880331355647040 T T T #  0
   0.4682874410102600  -0.0000000072941911   0.7196978658530021 T T T #  0
   0.5220316245393030  -0.0000000048306886   0.6960108593970690 T T T #  0
   0.5498230098148990  -0.0000000011610132   0.6423258368919371 T T T #  0
   0.5277153790989200   0.0000000013260463   0.6121497694663480 T T T #  0
   0.3865508678457700   0.0000000054672441   0.5804341483526531 T T T #  0
   0.7394454421638811  -0.0000000059580230   0.8193731438421870 T T T #  0
   0.8088712467908989  -0.0000000016640907   0.8409376579675601 T T T #  0
   0.8996949532593421  -0.0000000026273247   0.7723546207608951 T T T #  0
   0.9249095354115581  -0.0000000062375284   0.8005627074888171 T T T #  0
   0.9773939565893920   0.0000000017275183   0.7737349156478722 T T T #  0
   0.0074963444660048   0.0000000001326876   0.7201229452110391 T T T #  0
   0.9830555103774439  -0.0000000006105308   0.6898818621682911 T T T #  0
   0.9292135692772150  -0.0000000024691217   0.7196669691683241 T T T #  0
   0.7575176796111031   0.0000000028086898   0.8558463792344529 T T T #  0
   0.7218609512621221   0.0000000013047977   0.9112366124339981 T T T #  0
   0.6324528400271802  -0.0000000000371920   0.9819837447190862 T T T #  0
   0.6134326776335340   0.0000000006849493   0.0711292401739146 T T T #  0
   0.5605984132669650   0.0000000006050695   0.0956424148632244 T T T #  0
   0.5329697682107269   0.0000000020258092   0.1481286404005380 T T T #  0
   0.5530885142503200   0.0000000013142174   0.1815321288750610 T T T #  0
   0.6080333634202060   0.0000000007139400   0.1547826146453330 T T T #  0
   0.6359052052749820   0.0000000016600521   0.1018407721933181 T T T #  0
   0.6674951890022230   0.0000000007719559   0.9295520970697183 T T T #  0
   0.6476744738647862   0.0000000005351506   0.8943740979215870 T T T #  0
   0.6677193633321959  -0.0000000009153028   0.8038757015163283 T T T #  0
   0.5980474437141390   0.0000000025025721   0.7829397730221022 T T T #  0
   0.6261216798304630   0.0000000048317520   0.7296394520292601 T T T #  0
   0.5993958615941690   0.0000000016994593   0.7037691894728140 T T T #  0
   0.5457594822041432  -0.0000000028816376   0.7270072874526980 T T T #  0
   0.5154551065943700  -0.0000000056156581   0.7816143744912412 T T T #  0
   0.5452258317620960  -0.0000000023935183   0.8059593659272752 T T T #  0
   0.6840313731549260   0.0000000003355803   0.8393360892548523 T T T #  0
   0.0133934011683937  -0.0000000064659128   0.6337560102075681 T T T #  0
   0.0988888659972764  -0.0000000042278385   0.5562911101329722 T T T #  0
   0.1568228374203310   0.0000000023517583   0.5225915407773321 T T T #  0
   0.4592078871954650  -0.0000000095086454   0.8070029676010702 T T T #  0
   0.3486751537465260  -0.0000000056202319   0.7735904637496820 T T T #  0
   0.3822279703333500  -0.0000000094938780   0.7981477456956390 T T T #  0
   0.9098348689455349   0.0000000061787192   0.5928976364799503 T T T #  0
   0.9352219400167420   0.0000000094066508   0.6203428187628032 T T T #  0
   0.9891525266621140   0.0000000045088021   0.6001393773184172 T T T #  0
   0.0134775136178271  -0.0000000002225143   0.5456315557870260 T T T #  0
   0.9884728410501440  -0.0000000028909936   0.5176754215525450 T T T #  0
   0.9359536349192680   0.0000000006540772   0.5403496447138600 T T T #  0
   0.4172737642534490  -0.0000000003773265   0.9513562542468431 T T T #  0
   0.4448756254793980  -0.0000000014651012   0.8986891263513330 T T T #  0
   0.4249276516150730  -0.0000000045308394   0.8647185429545252 T T T #  0
   0.3702785294697210  -0.0000000011684843   0.8944882545318913 T T T #  0
   0.3421537780259630   0.0000000000294397   0.9472899928906211 T T T #  0
   0.3646581140086221  -0.0000000005746909   0.9774039902576022 T T T #  0
   0.3310981050176170   0.5000000046256520   0.6004471210453760 T T T #  0
   0.2613890438939200   0.5000000021006968   0.5791887506290241 T T T #  0
   0.1702371350078260   0.5000000079014327   0.6486903399189841 T T T #  0
   0.1455917702556300   0.5000000047474490   0.6202600652107461 T T T #  0
   0.0919006423653452   0.4999999984501990   0.6423385240436120 T T T #  0
   0.0621129756807303   0.5000000023404240   0.6960964776540710 T T T #  0
   0.0879727407555517   0.5000000028902519   0.7240158267889550 T T T #  0
   0.1400818765779020   0.5000000054898860   0.7019107545217621 T T T #  0
   0.3128357723003811   0.5000000056897330   0.5640437531712381 T T T #  0
   0.3485701979041750   0.5000000097392880   0.5085153171039921 T T T #  0
   0.4381615987311310   0.5000000047952140   0.4376794131884981 T T T #  0
   0.4573779496537771   0.4999999994235239   0.3483627369515130 T T T #  0
   0.5102173543582270   0.4999999979431409   0.3238601066657720 T T T #  0
   0.5377562645904300   0.4999999985688380   0.2713668941188120 T T T #  0
   0.5175133159079091   0.4999999996608780   0.2380249147184810 T T T #  0
   0.4625283432545380   0.4999999990112659   0.2647857008973490 T T T #  0
   0.4348034188439560   0.4999999988595599   0.3177191436111120 T T T #  0
   0.4028742930968910   0.5000000090296309   0.4901708601397300 T T T #  0
   0.4227519026769560   0.5000000016405479   0.5253151463610741 T T T #  0
   0.4033279582727520   0.5000000036511950   0.6155637339887661 T T T #  0
   0.4743705054953111   0.5000000032333750   0.6351191050244221 T T T #  0
   0.4462728167990341   0.4999999994658191   0.6880329457179301 T T T #  0
   0.4682862812797151   0.4999999955839360   0.7196989008148481 T T T #  0
   0.5220311305759709   0.4999999972540470   0.6960106202023462 T T T #  0
   0.5498223199033121   0.5000000002980541   0.6423257525732819 T T T #  0
   0.5277168258761309   0.5000000043818020   0.6121472076370340 T T T #  0
   0.3865583130932981   0.5000000004540610   0.5804257107272741 T T T #  0
   0.7394358540450119   0.4999999978751840   0.8193870342851972 T T T #  0
   0.8088740788206530   0.4999999999144890   0.8409373480850211 T T T #  0
   0.8996978527723550   0.4999999984475039   0.7723562385255132 T T T #  0
   0.9249095741630020   0.4999999968687440   0.8005657030006070 T T T #  0
   0.9773943721256151   0.5000000022264819   0.7737345823192711 T T T #  0
   0.0074952837535689   0.4999999998063500   0.7201229626453590 T T T #  0
   0.9830551078812388   0.4999999985695910   0.6898810834489791 T T T #  0
   0.9292130074147998   0.4999999951988680   0.7196684063336689 T T T #  0
   0.7575163298083071   0.5000000030979900   0.8558545091259409 T T T #  0
   0.7218664824757411   0.5000000034355701   0.9112456679069780 T T T #  0
   0.6324387848199208   0.5000000006953550   0.9820067150072991 T T T #  0
   0.6133877975186329   0.5000000007099269   0.0711893908725306 T T T #  0
   0.5605335107517588   0.5000000018489329   0.0956663069792351 T T T #  0
   0.5328849028846981   0.5000000004635550   0.1481572491815760 T T T #  0
   0.5530729598842380   0.5000000013450239   0.1815450769522390 T T T #  0
   0.6080524764182889   0.5000000016508850   0.1548463987744631 T T T #  0
   0.6358826483950459   0.5000000008359070   0.1019099063620500 T T T #  0
   0.6674873520586742   0.5000000018913660   0.9295737065832581 T T T #  0
   0.6476677335727580   0.5000000007753830   0.8943799299324913 T T T #  0
   0.6677150584750569   0.4999999996597320   0.8038788109632593 T T T #  0
   0.5980481459373950   0.5000000019780870   0.7829349749316921 T T T #  0
   0.6261250102014960   0.5000000045314180   0.7296363036852060 T T T #  0
   0.5993960019060340   0.5000000026473619   0.7037690817634630 T T T #  0
   0.5457593499349171   0.4999999989318770   0.7270082944982770 T T T #  0
   0.5154537547702450   0.4999999965639910   0.7816155633173612 T T T #  0
   0.5452266759207219   0.4999999978185800   0.8059582139649062 T T T #  0
   0.6840234025605731   0.5000000030050010   0.8393448284792149 T T T #  0
   0.0133910558572722   0.4999999938313719   0.6337553057995050 T T T #  0
   0.0988900456517804   0.4999999952750591   0.5562904343970301 T T T #  0
   0.1568236609798660   0.5000000016234740   0.5225904873763420 T T T #  0
   0.4592071687204811   0.4999999944016970   0.8070059330357919 T T T #  0
   0.3486746579196031   0.4999999952436530   0.7735901467664710 T T T #  0
   0.3822275517471011   0.4999999930323499   0.7981469762728811 T T T #  0
   0.9098344577096069   0.5000000032246810   0.5928971035386043 T T T #  0
   0.9352207818766621   0.5000000057289001   0.6203429057045431 T T T #  0
   0.9891513469593530   0.5000000026127889   0.6001406443666173 T T T #  0
   0.0134762726996628   0.4999999991017040   0.5456325761468110 T T T #  0
   0.9884721193530009   0.4999999967103129   0.5176760327078821 T T T #  0
   0.9359528543281439   0.4999999999786570   0.5403491343944431 T T T #  0
   0.4172731163379070   0.5000000001644850   0.9513577380465671 T T T #  0
   0.4448755541018750   0.4999999999152510   0.8986905858665313 T T T #  0
   0.4249287724292970   0.4999999984877119   0.8647187011927231 T T T #  0
   0.3702795572614501   0.5000000009159120   0.8944886589771851 T T T #  0
   0.3421545240169930   0.5000000012800929   0.9472904196002001 T T T #  0
   0.3646575501799911   0.5000000001560089   0.9774058017945673 T T T #  0
   0.0862496221819393   0.0777854664155695   0.5447360957080720 T T T #  0
   0.1754942513808110  -0.0785654745305314   0.5260145630041871 T T T #  0
   0.3523087626384441   0.0784818214433497   0.7514046036355220 T T T #  0
   0.3705108374271620  -0.0777124400953262   0.8223139963904613 T T T #  0
   0.0862496245304565  -0.0777854646848580   0.5447360880649470 T T T #  0
   0.1754942510643570   0.0785654790871845   0.5260145636679210 T T T #  0
   0.3523087599928101  -0.0784818293033083   0.7514046024784811 T T T #  0
   0.3705108445328880   0.0777124298720204   0.8223139907190320 T T T #  0
   0.5397001136972350   0.0000000000325856   0.0750693872682447 T T T #  0
   0.4926658347843241  -0.0000000003962075   0.1633003203186670 T T T #  0
   0.6771644391971960  -0.0000000005508374   0.0843352447257074 T T T #  0
   0.6845760871184260  -0.0000000020800586   0.0030166066565591 T T T #  0
   0.5311402223997250   0.0000000023948800   0.3443763967968211 T T T #  0
   0.5779745222943110   0.0000000001928352   0.2561812665074641 T T T #  0
   0.3935427940428600  -0.0000000029502559   0.3352540586280500 T T T #  0
   0.3862926993679820   0.0000000018780870   0.4164117527827550 T T T #  0
   0.2375147807280400   0.0000000000351170   0.6526850871465341 T T T #  0
   0.1633527378933970   0.0000000049141361   0.4835874243428020 T T T #  0
   0.1700524188622480  -0.0000000035753696   0.5800105700477100 T T T #  0
   0.0660384390445530   0.0000000011612808   0.7651899435648331 T T T #  0
   0.1579148656941350   0.0000000015796403   0.7253963218037423 T T T #  0
   0.9045927303767221  -0.0000000059449211   0.8418372907388650 T T T #  0
   0.9964076117194561   0.0000000018544534   0.7960269399093572 T T T #  0
   0.9053967425373020   0.0000000003919134   0.7032742870847501 T T T #  0
   0.8324596743058450  -0.0000000048797742   0.7675326483993681 T T T #  0
   0.6674510687353510  -0.0000000014027762   0.7087428269811011 T T T #  0
   0.6216388086230351  -0.0000000027470921   0.6625749990631851 T T T #  0
   0.5287385637040442  -0.0000000018919706   0.8461347069424270 T T T #  0
   0.4060282273029591  -0.0000000032525586   0.7037939121463210 T T T #  0
   0.5910480593691940   0.0000000046225877   0.6230731875576021 T T T #  0
   0.5513125280980450   0.0000000076970412   0.5709703196104501 T T T #  0
   0.3096511918149110  -0.0000000023524396   0.8058788880845761 T T T #  0
   0.8182417291497202  -0.0000000048176051   0.8713008816690071 T T T #  0
   0.2523547036733689   0.0000000003792141   0.5485558780929860 T T T #  0
   0.4784401498128350   0.0000000016610741   0.4261705125796389 T T T #  0
   0.4763375360242230  -0.0000000002283909   0.5642612496204671 T T T #  0
   0.3738455417379310   0.0000000047099286   0.6555110126032170 T T T #  0
   0.5921241001801060   0.0000000002793021   0.9937212531232682 T T T #  0
   0.5946729303511271  -0.0000000008711692   0.8548211347457632 T T T #  0
   0.9165628467025900  -0.0000000008162577   0.5183673110229391 T T T #  0
   0.8683900874053081   0.0000000035832623   0.6145501882712631 T T T #  0
   0.9081465444393710   0.0000000052835179   0.6597144596032691 T T T #  0
   0.0537753747730490  -0.0000000008794919   0.5211806207501432 T T T #  0
   0.0120539135224474  -0.0000000024535995   0.4765167422869810 T T T #  0
   0.3426909449387950  -0.0000000017706195   0.0186559173403872 T T T #  0
   0.4385922061036090  -0.0000000007821755   0.9715765904963630 T T T #  0
   0.4843349799384931  -0.0000000012376138   0.8863673660524980 T T T #  0
   0.3458835193027780   0.0000000018293772   0.8784177584361690 T T T #  0
   0.3009213631688390   0.0000000006451117   0.9646766966511272 T T T #  0
   0.6970827101836150  -0.0000000014959493   0.7639407990238680 T T T #  0
   0.0862505400345775   0.5777846047190270   0.5447352363799350 T T T #  0
   0.1754945521824540   0.4214340237588829   0.5260139508944630 T T T #  0
   0.3523085468796811   0.5784825855441870   0.7514045698036271 T T T #  0
   0.3705099453945970   0.4222886545633850   0.8223138939863130 T T T #  0
   0.0862505421902666   0.4222153961826580   0.5447352292569660 T T T #  0
   0.1754945513197370   0.5785659799172310   0.5260139516911851 T T T #  0
   0.3523085450646989   0.4215174073382049   0.7514045689302231 T T T #  0
   0.3705099500379450   0.5777113380855359   0.8223138898981850 T T T #  0
   0.5396589570408069   0.5000000025624290   0.0750562925792693 T T T #  0
   0.4925503284301790   0.4999999984770490   0.1633618292001400 T T T #  0
   0.6771489096728509   0.4999999990136749   0.0844194053741769 T T T #  0
   0.6845379660883228   0.4999999997677169   0.0030845890984585 T T T #  0
   0.5311674865160561   0.5000000006219339   0.3443903932532451 T T T #  0
   0.5780816725789020   0.4999999993371060   0.2561222729026600 T T T #  0
   0.3935461912864340   0.4999999996805611   0.3351760976098601 T T T #  0
   0.3863213220958480   0.5000000028727281   0.4163532229750781 T T T #  0
   0.2375152970001320   0.5000000017105700   0.6526822862044840 T T T #  0
   0.1633550785627770   0.5000000037923069   0.4835859259286001 T T T #  0
   0.1700510823150830   0.4999999963788770   0.5800111103195900 T T T #  0
   0.0660387034805746   0.5000000008331239   0.7651884106965411 T T T #  0
   0.1579166566017530   0.5000000019740540   0.7253968911354940 T T T #  0
   0.9045923037019220   0.4999999968146950   0.8418403831474481 T T T #  0
   0.9964087983134640   0.5000000022195150   0.7960256227386662 T T T #  0
   0.9053965423423629   0.5000000004004749   0.7032747810109051 T T T #  0
   0.8324619021922320   0.4999999979233349   0.7675343647130181 T T T #  0
   0.6674547763458759   0.4999999989275650   0.7087411406465942 T T T #  0
   0.6216373486828288   0.4999999991903140   0.6625752873314723 T T T #  0
   0.5287386809547791   0.4999999982444139   0.8461340491397120 T T T #  0
   0.4060294230760550   0.4999999973299279   0.7037939180317890 T T T #  0
   0.5910469668658140   0.5000000046097510   0.6230739990956511 T T T #  0
   0.5513136497515611   0.5000000090284749   0.5709672618080882 T T T #  0
   0.3096504150984341   0.4999999976976749   0.8058778331180221 T T T #  0
   0.8182512094957630   0.4999999948397379   0.8712951619590281 T T T #  0
   0.2523461356595960   0.5000000008057629   0.5485606755043440 T T T #  0
   0.4784475277374890   0.5000000005119710   0.4261680082016341 T T T #  0
   0.4763426155208271   0.4999999996683090   0.5642670282220921 T T T #  0
   0.3738495310833361   0.5000000063735890   0.6555088833451780 T T T #  0
   0.5921130782781580   0.5000000005947990   0.9937201675644800 T T T #  0
   0.5946659850349990   0.4999999986845339   0.8548140991601569 T T T #  0
   0.9165621245008729   0.4999999999734500   0.5183667217730112 T T T #  0
   0.8683897559062771   0.5000000023753199   0.6145500322933362 T T T #  0
   0.9081446182661991   0.5000000032988039   0.6597143520177879 T T T #  0
   0.0537742197523510   0.4999999994469560   0.5211818080579250 T T T #  0
   0.0120540306740430   0.4999999983051410   0.4765173642124519 T T T #  0
   0.3426908916073640   0.4999999987232090   0.0186578638972511 T T T #  0
   0.4385906073213880   0.4999999985886329   0.9715788366045002 T T T #  0
   0.4843347018674190   0.4999999995042361   0.8863694160055151 T T T #  0
   0.3458845095813270   0.5000000021784780   0.8784181696110620 T T T #  0
   0.3009222366696571   0.5000000007588709   0.9646766275436111 T T T #  0
   0.6970772141854960   0.4999999987723109   0.7639433963740200 T T T #  0
   0.2231554406607970   0.0000000026757839   0.6279402273280640 T T T #  0
   0.4254944472036661   0.0000000017672063   0.4014820460646260 T T T #  0
   0.4526805250498070   0.0000000025536532   0.6036896217695481 T T T #  0
   0.8468914947046251   0.0000000003863435   0.7923163536855091 T T T #  0
   0.6453101267308480   0.0000000011704729   0.0180889433496070 T T T #  0
   0.6186001332746091   0.0000000010703045   0.8153923143264462 T T T #  0
   0.0675549889419934  -0.0000000212606127   0.6129991701666300 T T T #  0
   0.4388232566019241  -0.0000000126874221   0.7732120009009561 T T T #  0
   0.2231554438659740   0.5000000035560780   0.6279388036506601 T T T #  0
   0.4255224168162241   0.5000000024024739   0.4014337511355990 T T T #  0
   0.4526806192721010   0.5000000016692140   0.6036914550486331 T T T #  0
   0.8468921034474352   0.5000000068530489   0.7923184577615940 T T T #  0
   0.6452744339631850   0.5000000020362318   0.0181427531757418 T T T #  0
   0.6186003028072409   0.5000000012027408   0.8153896764346382 T T T #  0
   0.0675581116134315   0.4999999746294039   0.6129967953504790 T T T #  0
   0.4388211714742500   0.4999999911195249   0.7732109243806121 T T T #  0
   0.4317730648274330   0.1073944626198210   0.2080241017635591 T T T #  0
   0.6386765663646350  -0.1072689929684630   0.2117832201232860 T T T #  0
   0.4317730626072860  -0.1073944587237570   0.2080241000643730 T T T #  0
   0.6386765673228632   0.1072689931346490   0.2117832203191470 T T T #  0
   0.3679735187493720   0.0000000002020679   0.2823476519346640 T T T #  0
   0.7024880390844570   0.0000000000220764   0.1375004711795880 T T T #  0
   0.2999672971601950  -0.0000000025623521   0.6475372695095171 T T T #  0
   0.3315101356794210   0.0000000102133644   0.4782699042622420 T T T #  0
   0.4697844555901940   0.0000000020413833   0.5097899350930541 T T T #  0
   0.7705422814460920  -0.0000000276336866   0.7722588111680242 T T T #  0
   0.7388204446466740  -0.0000000027742176   0.9415239476931132 T T T #  0
   0.6005523475805640  -0.0000000025631551   0.9098869377219951 T T T #  0
   0.4318744203302470   0.6075350637310010   0.2080184208456999 T T T #  0
   0.6385677887140480   0.3925717785114319   0.2117980450970919 T T T #  0
   0.4318744197557190   0.3924649415262990   0.2080184195324501 T T T #  0
   0.6385677906464070   0.6074282188510689   0.2117980452161421 T T T #  0
   0.3679662240023900   0.5000000014765800   0.2823775438446741 T T T #  0
   0.7024948947126312   0.5000000102568649   0.1374597380774580 T T T #  0
   0.2999786738772890   0.5000000004380831   0.6475240210973061 T T T #  0
   0.3315096281840481   0.5000000124578630   0.4782611169720411 T T T #  0
   0.4697903191560441   0.5000000038291509   0.5097823511434540 T T T #  0
   0.7705288714587759   0.4999999830681839   0.7722733189690982 T T T #  0
   0.7388204923762579   0.5000000020226258   0.9415350009170922 T T T #  0
   0.6005470174369800   0.4999999921891570   0.9098954741118033 T T T #  0
   0.6507344553589640   0.0000000000682698   0.1811420957312501 T T T #  0
   0.4197583138048000   0.0000000004931737   0.2386017804599230 T T T #  0
   0.6507666020618220   0.4999999952542220   0.1811823115775449 T T T #  0
   0.4197105648430320   0.5000000016944999   0.2385490150755420 T T T #  0