Automatic mesh
 0
Gamma
 5 8 5
 0. 0. 0.
