NiOOH_P2_M                                
   1.00000000000000     
    -5.1153798559492918   -0.0000000000000014    0.4380089410217834
     0.0000000000000007   -2.9347590971564035    0.0000000000000008
    -0.3913836963757876    0.0000000000000009    4.7265168638875856
   H    Ni   O 
     2     2     4
Direct
  0.6221290953536469 -0.0000000000000000  0.4464742903210485 H
  0.0431305555249482  0.0000000000000000  0.5646381795360195 H
  0.8326904904387311  0.5000000000000000  0.0056007569178665 Ni
  0.3327150811943397 -0.0000000000000000  0.0055522914105329 Ni
  0.5392472435507394  0.5000000000000000  0.8154414934209991 O
  0.1262912701752122  0.5000000000000000  0.1958476165637092 O
  0.0215936737659831  0.0000000000000000  0.7737673318132416 O
  0.6438588501155789 -0.0000000000000000  0.2373749870578782 O